
<<< setup

Tried aggregator 1 time.
LP Presolve eliminated 98 rows and 78 columns.
Reduced LP has 1 rows, 5 columns, and 5 nonzeros.
Presolve time = 0.00 sec. (0.03 ticks)

Iteration log . . .
Iteration:     1   Dual objective     =          1126.059768
main returns 0

<<< main


<<< done

